% seed = 0

mint = 19;
% maxt = 57;

nActs = 22;
dur = [0,2,4,1,2,3,3,3,3,2,3,4,4,6,3,2,2,1,4,1,4,0];

nSkills = 9;
sreq = [| 0,0,0,0,0,0,0,0,0,
	| 0,0,1,0,1,1,0,0,0,
	| 1,0,0,0,2,0,0,0,0,
	| 0,0,0,0,0,1,0,1,0,
	| 0,0,0,0,0,1,1,0,0,
	| 1,1,0,1,0,0,0,0,0,
	| 0,0,0,0,1,1,0,0,0,
	| 0,0,0,0,1,0,0,0,0,
	| 0,0,0,1,0,1,1,0,0,
	| 0,0,1,0,0,0,0,1,0,
	| 0,0,0,0,0,1,2,0,0,
	| 0,0,0,1,0,0,2,0,0,
	| 0,1,0,0,0,0,1,0,0,
	| 0,0,0,1,0,0,0,0,0,
	| 0,2,0,1,0,0,1,0,0,
	| 0,0,1,0,1,0,0,1,0,
	| 0,0,0,0,0,0,0,0,1,
	| 1,2,0,0,0,0,0,0,0,
	| 0,0,2,0,0,0,0,0,2,
	| 0,0,0,0,1,1,0,1,0,
	| 0,0,0,0,2,0,1,0,0,
	| 0,0,0,0,0,0,0,0,0, |];

% SumOfsreq = 51;

nResources = 6;
mastery = [| false,true,false,true,true,true,true,true,true,
	| true,true,true,false,false,true,true,true,true,
	| false,false,true,true,true,true,true,true,true,
	| false,true,false,true,true,true,true,true,true,
	| true,true,true,false,true,true,true,false,true,
	| false,true,true,false,true,true,true,true,true, |];

nPrecs = 40;
pred = [1,1,1,2,2,3,3,4,4,4,5,5,5,6,6,6,7,7,8,8,9,9,10,10,10,11,11,12,12,12,13,14,15,15,16,17,18,19,20,21];
succ = [2,3,4,10,11,18,14,10,19,5,6,7,8,9,12,15,11,13,9,17,20,21,13,14,16,15,16,17,18,13,20,15,17,20,18,21,21,22,22,22];

nUnrels = 91;
unpred = [2,2,2,2,2,2,2,2,2,3,3,3,3,3,3,3,3,3,3,3,3,5,5,5,6,6,6,6,6,6,6,7,7,7,7,7,7,8,8,8,8,8,8,8,8,8,9,9,9,9,9,9,9,9,9,9,10,10,10,11,11,11,11,12,12,12,12,13,13,13,13,13,13,13,14,14,14,15,15,15,16,16,16,17,17,17,18,18,19,19,20];
unsucc = [3,4,5,6,7,8,9,12,19,4,5,6,7,8,9,10,11,12,13,16,19,10,14,19,7,8,10,11,14,16,19,8,9,10,12,14,19,10,11,12,13,14,15,16,18,19,10,11,12,13,14,15,16,17,18,19,11,12,19,12,13,14,19,14,15,16,19,14,15,16,17,18,19,21,16,18,19,16,18,19,17,19,20,18,19,20,19,20,20,21,21];

USEFUL_RES = [{},
	{1,2,3,4,5,6},
	{1,2,3,4,5,6},
	{1,2,3,4,5,6},
	{1,2,3,4,5,6},
	{1,2,3,4,5,6},
	{1,2,3,4,5,6},
	{1,3,4,5,6},
	{1,2,3,4,5,6},
	{1,2,3,4,5,6},
	{1,2,3,4,5,6},
	{1,2,3,4,5,6},
	{1,2,3,4,5,6},
	{1,3,4},
	{1,2,3,4,5,6},
	{1,2,3,4,5,6},
	{1,2,3,4,5,6},
	{1,2,4,5,6},
	{1,2,3,4,5,6},
	{1,2,3,4,5,6},
	{1,2,3,4,5,6},
	{}];

POTENTIAL_ACT = [{2,3,4,5,6,7,8,9,10,11,12,13,14,15,16,17,18,19,20,21},
	{2,3,4,5,6,7,9,10,11,12,13,15,16,17,18,19,20,21},
	{2,3,4,5,6,7,8,9,10,11,12,13,14,15,16,17,19,20,21},
	{2,3,4,5,6,7,8,9,10,11,12,13,14,15,16,17,18,19,20,21},
	{2,3,4,5,6,7,8,9,10,11,12,13,15,16,17,18,19,20,21},
	{2,3,4,5,6,7,8,9,10,11,12,13,15,16,17,18,19,20,21}];
